Cost: 366
0-2-28-22-41-23-49-16-0
0-26-0
0-17-44-32-9-40-0
0-34-35-19-13-27-4-0
0-45-29-5-48-30-6-0
0-12-10-38-11-7-0
Cost: 366
0-2-28-22-41-23-49-16-0
0-26-0
0-17-44-32-9-40-0
0-34-35-19-13-27-4-0
0-45-29-5-48-30-6-0
0-12-10-38-11-7-0
Cost: 366
0-2-28-22-41-23-49-16-0
0-26-0
0-17-44-32-9-40-0
0-34-35-19-13-27-4-0
0-45-29-5-48-30-6-0
0-12-10-38-11-7-0
Cost: 366
0-2-28-22-41-23-49-16-0
0-26-0
0-17-44-32-9-40-0
0-34-35-19-13-27-4-0
0-45-29-5-48-30-6-0
0-12-10-38-11-7-0
Cost: 366
0-2-28-22-41-23-49-16-0
0-26-0
0-17-44-32-9-40-0
0-34-35-19-13-27-4-0
0-45-29-5-48-30-6-0
0-12-10-38-11-7-0
Cost: 366
0-2-28-22-41-23-49-16-0
0-26-0
0-17-44-32-9-40-0
0-34-35-19-13-27-4-0
0-45-29-5-48-30-6-0
0-12-10-38-11-7-0
Cost: 366
0-2-28-22-41-23-49-16-0
0-26-0
0-17-44-32-9-40-0
0-34-35-19-13-27-4-0
0-45-29-5-48-30-6-0
0-12-10-38-11-7-0
Cost: 366
0-2-28-22-41-23-49-16-0
0-26-0
0-17-44-32-9-40-0
0-34-35-19-13-27-4-0
0-45-29-5-48-30-6-0
0-12-10-38-11-7-0
Cost: 366
0-2-28-22-41-23-49-16-0
0-26-0
0-17-44-32-9-40-0
0-34-35-19-13-27-4-0
0-45-29-5-48-30-6-0
0-12-10-38-11-7-0
Cost: 366
0-2-28-22-41-23-49-16-0
0-26-0
0-17-44-32-9-40-0
0-34-35-19-13-27-4-0
0-45-29-5-48-30-6-0
0-12-10-38-11-7-0
Cost: 366
0-17-44-32-9-40-0
0-30-28-21-47-5-29-0
0-12-10-38-11-7-0
0-46-35-19-13-27-4-0
0-6-33-1-41-23-49-16-0
0-26-0
Cost: 366
0-17-44-32-9-40-0
0-30-28-21-47-5-29-0
0-12-10-38-11-7-0
0-46-35-19-13-27-4-0
0-6-33-1-41-23-49-16-0
0-26-0
Cost: 366
0-17-44-32-9-40-0
0-30-28-21-47-5-29-0
0-12-10-38-11-7-0
0-46-35-19-13-27-4-0
0-6-33-1-41-23-49-16-0
0-26-0
Cost: 366
0-17-44-32-9-40-0
0-30-28-21-47-5-29-0
0-12-10-38-11-7-0
0-46-35-19-13-27-4-0
0-6-33-1-41-23-49-16-0
0-26-0
Cost: 366
0-17-44-32-9-40-0
0-30-28-21-47-5-29-0
0-12-10-38-11-7-0
0-46-35-19-13-27-4-0
0-6-33-1-41-23-49-16-0
0-26-0
Cost: 366
0-17-44-32-9-40-0
0-30-28-21-47-5-29-0
0-12-10-38-11-7-0
0-46-35-19-13-27-4-0
0-6-33-1-41-23-49-16-0
0-26-0
Cost: 366
0-17-44-32-9-40-0
0-30-28-21-47-5-29-0
0-12-10-38-11-7-0
0-46-35-19-13-27-4-0
0-6-33-1-41-23-49-16-0
0-26-0
Cost: 366
0-17-44-32-9-40-0
0-30-28-21-47-5-29-0
0-12-10-38-11-7-0
0-46-35-19-13-27-4-0
0-6-33-1-41-23-49-16-0
0-26-0
Cost: 366
0-17-44-32-9-40-0
0-30-28-21-47-5-29-0
0-12-10-38-11-7-0
0-46-35-19-13-27-4-0
0-6-33-1-41-23-49-16-0
0-26-0
Cost: 366
0-17-44-32-9-40-0
0-30-28-21-47-5-29-0
0-12-10-38-11-7-0
0-46-35-19-13-27-4-0
0-6-33-1-41-23-49-16-0
0-26-0
Cost: 366
0-17-44-32-9-40-0
0-30-28-21-47-5-29-0
0-12-10-38-11-7-0
0-46-35-19-13-27-4-0
0-6-33-1-41-23-49-16-0
0-26-0
Cost: 366
0-17-44-32-9-40-0
0-30-28-21-47-5-29-0
0-12-10-38-11-7-0
0-46-35-19-13-27-4-0
0-6-33-1-41-23-49-16-0
0-26-0
Cost: 366
0-12-10-38-11-7-0
0-2-28-22-42-23-49-16-0
0-26-0
0-6-30-48-5-29-45-0
0-40-9-32-44-17-0
0-4-27-13-19-35-34-0
Cost: 366
0-17-44-32-9-40-0
0-30-28-21-47-5-29-0
0-12-10-38-11-7-0
0-46-35-19-13-27-4-0
0-6-33-1-41-23-49-16-0
0-26-0
Cost: 366
0-17-44-32-9-40-0
0-30-28-21-47-5-29-0
0-12-10-38-11-7-0
0-46-35-19-13-27-4-0
0-6-33-1-41-23-49-16-0
0-26-0
Cost: 366
0-17-44-32-9-40-0
0-30-28-21-47-5-29-0
0-12-10-38-11-7-0
0-46-35-19-13-27-4-0
0-6-33-1-41-23-49-16-0
0-26-0
Cost: 366
0-45-29-5-48-30-6-0
0-12-10-38-11-7-0
0-26-0
0-4-27-13-19-35-34-0
0-17-44-32-9-40-0
0-16-49-23-41-22-28-2-0
Cost: 366
0-4-27-13-19-35-46-0
0-40-9-32-44-17-0
0-16-49-23-41-1-33-6-0
0-7-11-38-10-12-0
0-30-28-21-47-5-29-0
0-26-0
Cost: 366
0-12-10-38-11-7-0
0-6-30-48-5-29-45-0
0-26-0
0-16-49-23-42-22-28-2-0
0-17-44-32-9-40-0
0-4-27-13-19-35-34-0
Cost: 366
0-40-9-32-44-17-0
0-6-30-48-5-29-45-0
0-7-11-38-10-12-0
0-2-28-22-41-23-49-16-0
0-26-0
0-34-35-19-13-27-4-0
Cost: 366
0-26-0
0-6-33-1-41-23-49-16-0
0-40-9-32-44-17-0
0-29-5-47-21-28-30-0
0-12-10-38-11-7-0
0-46-35-19-13-27-4-0
